c WARNING: for repeatability, setting FPU to use double precision
d VARIABLES            27129        
d CONSTRAINTS          95793        
c ============================[ Problem Statistics ]=============================
c |                                                                             |
c |  Number of variables:         27129                                         |
c |  Number of clauses:           95793                                         |
c |  Parse time:                   0.02 s                                       |
c |                                                                             |
c ============================[ Search Statistics ]==============================
c | Conflicts |          ORIGINAL         |          LEARNT          | Progress |
c |           |    Vars  Clauses Literals |    Limit  Clauses Lit/Cl |          |
c ===============================================================================
c |       100 |   16417    66957   165346 |    24550       99    163 | 39.485 % |
c |       250 |   16417    66948   165324 |    27005      249    126 | 39.485 % |
c |       475 |   16417    66948   165324 |    29706      474    108 | 39.485 % |
c |       812 |   16417    66948   165324 |    32677      811    110 | 39.485 % |
c |      1318 |   16417    66948   165324 |    35944     1317    119 | 39.485 % |
c |      2077 |   16417    66948   165324 |    39539     2076    109 | 39.485 % |
c |      3216 |   16417    66948   165324 |    43493     3215     94 | 39.485 % |
c |      4924 |   16417    66948   165324 |    47842     4923    101 | 39.485 % |
c |      7486 |   16417    66948   165324 |    52627     7485     98 | 39.485 % |
c |     11330 |   16417    66948   165324 |    57889    11329     98 | 39.485 % |
c |     17096 |   16417    66948   165324 |    63678    17095    101 | 39.485 % |
c |     25745 |   16417    66948   165324 |    70046    25744     93 | 39.485 % |
c ===============================================================================
c restarts              : 94
c conflicts             : 26173          (4451 /sec)
c decisions             : 52983          (0.00 % random) (9010 /sec)
c propagations          : 32462458       (5520482 /sec)
c conflict literals     : 2420039        (50.55 % deleted)
d RESTARTS             94
d FAILURES             26173        
d NODES                52983        
d BACKTRACKS           52983        
d PROPAGATIONS         32462458     
d NOGOODSIZE           92.46 
d MEMORY               22.00 
d TIME                 5.88037 

s UNSATISFIABLE
